language ESSENCE' 1.0
letting n_skills = 3
letting n_workers = 2
letting has_skills = [{1,3},{3}]
letting n_tasks = 25
letting d = [4,5,4,4,2,3,5,2,2,1,3,3,4,3,1,4,3,1,1,3,1,1,2,2,5]
letting rr = [[1,1,1,0,0,1,0,0,0,0,1,1,0,0,1,1,0,1,1,0,0,1,0,0,0],[0,0,0,0,0,0,0,0,0,0,0,0,0,0,0,0,0,0,0,0,0,0,0,0,0],[1,0,1,1,1,0,1,1,1,1,0,0,1,1,0,0,1,0,0,1,1,0,1,1,1]]
letting suc = [{13,19,22,23},{14,16,20},{13,21,23},{12,20,25},{18},{9,10,25},{14,15,21,24},{9,22,24},{15},{12,15},{12,13},{13,16},{25},{17,19},{20},{24},{24,25},{},{},{},{23,24},{23},{25},{},{}]
